s td 88 10 119
b 1 2 17 99 116
b 2 4 43 61 98
b 3 6 45 69 83
b 4 10 34 42 102
b 5 15 24 86 107
b 6 16 18 20 75
b 7 29 38 44 71
b 8 32 56 99 114
b 9 36 55 58 87
b 10 50 100 106 118
b 11 53 61 67 82
b 12 11 57 75 76
b 13 12 25 62 110
b 14 63 66 88 93
b 15 26 85 97 108
b 16 54 90 96 102
b 17 22 64 65 94
b 18 37 65 92 94
b 19 23 59 68 104
b 20 9 12 25
b 21 30 59 94 104
b 22 55 58 84
b 23 39 66 88
b 24 8 45 69
b 25 38 40 71
b 26 86 107 112
b 27 26 72 97
b 28 5 106 118
b 29 27 65 78 94 104
b 30 46 65 68 78 94 104
b 31 31 65 68 74 104
b 32 52 65 68 104 105
b 33 3 14 46 65 68 104
b 34 14 46 65 68 80 104
b 35 46 49 51 65 68 104
b 36 46 60 65 68 80 104
b 37 46 65 68 70 104 111
b 38 46 65 68 80 104
b 39 46 65 68 91 95 104
b 40 19 46 65 68 104 109
b 41 46 65 68 77 104 113
b 42 7 46 65 68 104 115
b 43 65 79 94 104 119
b 44 46 61 65 68 73 79 89 94 104
b 45 7 46 65 68 94 104
b 46 19 46 65 68 94 104
b 47 46 49 65 68 94 104
b 48 46 59 65 68 94 104
b 49 46 64 65 68 94 104
b 50 46 65 68 74 94 104
b 51 46 65 68 77 94 104
b 52 28 46 68 81 94 104
b 53 28 46 68 94 101 104
b 54 46 65 68 92 94 104
b 55 46 65 68 94 95 104
b 56 46 68 94 101 104 117
b 57 46 65 68 94 104 105
b 58 46 65 68 94 104 111
b 59 13 21 46 65 68 94 104
b 60 13 46 65 68 73 94 104
b 61 35 46 65 67 68 94 104
b 62 46 61 65 67 68 94 104
b 63 1 41 46 65 68 94 104
b 64 1 46 65 68 89 94 104
b 65 46 47 65 68 94 104 116
b 66 46 65 68 94 99 104 116
b 67 46 48 65 68 76 94 104
b 68 46 61 65 68 76 94 99 102 104
b 69 46 54 65 68 94 103 104
b 70 46 54 65 68 94 102 104
b 71 33 61 73 79 89
b 72 46 61 65 68 73 89 94 102 104
b 73 46 61 65 68 89 94 99 102 104
b 74 61 75 76 99 102
b 75 75 76 99 102
b 76 75 76 102
b 77 11 75 76
b 78 11 20 75
b 79 5 8 9 20 39 40 72 84 112 118
b 80 8 9 20 39 40 45 72 84 112 118
b 81 9 12 20 39 40 45 72 84 112 118
b 82 11 12 20 26 38 45 58 88 107 118
b 83 12 20 26 38 45 58 72 88 107 118
b 84 12 20 38 40 45 58 72 88 107 118
b 85 12 20 39 40 45 72 84 88 112 118
b 86 12 20 40 45 58 72 84 88 107 118
b 87 12 20 40 45 72 84 88 107 112 118
b 88 107 112 118
1 66
2 74
3 24
4 74
5 26
6 78
7 25
8 74
9 22
10 28
11 62
12 77
13 20
14 23
15 27
16 70
17 49
18 54
19 48
20 81
21 48
22 86
23 85
24 80
25 84
26 87
27 83
28 79
29 30
30 67
31 50
32 57
33 34
34 38
35 47
36 38
37 58
38 67
39 55
40 46
41 51
42 45
43 44
44 71
44 72
45 67
46 67
47 67
48 67
49 67
50 67
51 67
52 53
53 56
54 67
55 67
56 67
57 67
58 67
59 60
60 72
61 62
62 68
63 64
64 73
65 66
66 68
67 68
68 70
68 73
68 74
69 70
72 73
74 77
74 75
75 76
77 78
78 82
79 80
80 81
81 85
82 83
83 84
84 86
85 87
86 87
87 88
